Gurobi 12.0.1:   lim:time = 14400
  mip:bestbound = 1
Set parameter LogToConsole to value 1
  tech:outlev = 1
Set parameter Cuts to value 3
  cut:cuts = 3
Set parameter Presolve to value 2
  pre:solve = 2
Set parameter MIPFocus to value 2
  mip:focus = 2
Set parameter Symmetry to value 2
  mip:symmetry = 2
Set parameter InfUnbdInfo to value 1
Gurobi Optimizer version 12.0.1 build v12.0.1rc0 (win64 - Windows 11.0 (26100.2))

CPU model: Intel(R) Core(TM) i7-10700 CPU @ 2.90GHz, instruction set [SSE2|AVX|AVX2]
Thread count: 8 physical cores, 16 logical processors, using up to 16 threads

Non-default parameters:
TimeLimit  14400
MIPFocus  2
Symmetry  2
Cuts  3
InfUnbdInfo  1
Presolve  2

Optimize a model with 379 rows, 689 columns and 3959 nonzeros
Model fingerprint: 0xc5ac35ac
Model has 2 quadratic objective terms
Model has 7 quadratic constraints
Variable types: 34 continuous, 655 integer (0 binary)
Coefficient statistics:
  Matrix range     [1e+00, 1e+05]
  QMatrix range    [1e+00, 1e+00]
  QLMatrix range   [1e+00, 2e+01]
  Objective range  [4e+00, 1e+02]
  QObjective range [3e+00, 3e+00]
  Bounds range     [1e+00, 1e+02]
  RHS range        [1e+00, 1e+05]
  QRHS range       [1e+02, 1e+02]
Presolve removed 46 rows and 132 columns
Presolve time: 0.12s
Presolved: 735 rows, 920 columns, 5367 nonzeros
Variable types: 14 continuous, 906 integer (785 binary)
Found heuristic solution: objective 406.4400000
Root relaxation presolve removed 27 rows and 0 columns
Root relaxation presolved: 425 rows, 684 columns, 5829 nonzeros


Root relaxation: objective 1.432458e+02, 101 iterations, 0.01 seconds (0.01 work units)

    Nodes    |    Current Node    |     Objective Bounds      |     Work
 Expl Unexpl |  Obj  Depth IntInf | Incumbent    BestBd   Gap | It/Node Time

     0     0  143.24583    0   38  406.44000  143.24583  64.8%     -    0s
H    0     0                     300.5900000  143.24583  52.3%     -    0s
H    0     0                     229.7800000  173.47000  24.5%     -    0s
H    0     0                     226.3700000  173.47000  23.4%     -    0s
H    0     0                     206.6300000  173.47000  16.0%     -    0s
     0     0  173.58000    0   29  206.63000  173.58000  16.0%     -    0s
     0     0  173.58000    0   24  206.63000  173.58000  16.0%     -    0s
     0     0  173.58000    0   20  206.63000  173.58000  16.0%     -    0s
     0     0  173.58000    0   37  206.63000  173.58000  16.0%     -    0s
     0     0  173.58000    0   43  206.63000  173.58000  16.0%     -    0s
     0     0  173.58000    0   20  206.63000  173.58000  16.0%     -    0s
     0     0  185.27500    0   13  206.63000  185.27500  10.3%     -    0s
     0     0  192.05611    0   13  206.63000  192.05611  7.05%     -    0s
     0     0  206.63000    0   13  206.63000  206.63000  0.00%     -    0s

Cutting planes:
  Learned: 6
  Gomory: 20
  Implied bound: 1
  MIR: 2
  Flow cover: 45
  Zero half: 5
  RLT: 18
  Relax-and-lift: 1

Explored 1 nodes (464 simplex iterations) in 0.57 seconds (0.40 work units)
Thread count was 16 (of 16 available processors)

Solution count 5: 206.63 226.37 229.78 ... 406.44

Optimal solution found (tolerance 1.00e-04)
Best objective 2.066300000000e+02, best bound 2.066300000000e+02, gap 0.0000%

AMPL MP initial flat model has 689 variables (0 integer, 655 binary);
Objectives: 1 quadratic; 
Constraints:  379 linear; 7 quadratic;

AMPL MP final model has 689 variables (0 integer, 655 binary);
Objectives: 1 quadratic; 
Constraints:  379 linear; 7 quadratic;


-----RESULTS INFO-----
running_time:  0.657
TC.best_bound:  206.63
TC:  206.63
MIP Gap (%):  0
=== Vehicle Routes ===
Vehicle 1: 0 → 1
Vehicle 1: 1 → 6
Vehicle 1: 2 → 15
Vehicle 1: 3 → 8
Vehicle 1: 6 → 2
Vehicle 1: 8 → 17
Vehicle 1: 15 → 3
Vehicle 2: 0 → 17
Vehicle 3: 0 → 17

=== Full Vehicle Routes ===
Vehicle 1: 0 → 1 → 6 → 2 → 15 → 3 → 8 → 0 (93<100)
Vehicle 2: 0 → 0 (0<100)
Vehicle 3: 0 → 0 (0<100)
Arc used by MRT line: y variables:
MRT used: 8 → 9
Customer assigment to PL: u variables:
4 9
5 15
7 15
Node is served by regular vehicle: g variables:
1
2
3
6
15
8
Customer assigment to Home delivery: gm variables:
1
2
3
6
Node total demands: ntd variables:
1 19 1
2 12 1
3 8 1
6 16 1
7 0 0
14 0 0
15 23 1
16 0 0
8 15 1
9 0 0
10 0 0
11 0 0
12 0 0
13 0 0
Customer's demand delivered to PL: l variables:
4
5
7
Lockers load <= capacity:
0 <= 97
23 <= 81
0 <= 83
0 <= 82
15 <= 90
0 <= 72
0 <= 89
0 <= 89
0 <= 92
